c File: flat175_3_0.col
c
c SOURCE: Joseph Culberson (joe@cs.ualberta.ca)
c DESCRIPTION: Quasi-random coloring problem
c              generated with flatness = 0
c                             probability = 0.041
c                             known coloring = 3
c                             random seed = 1086
c              Creation Date:  Wed Feb 24 10:55:33 1999
c Maximum degree = 8 Minimum degree = 0
c COLOR VERIFICATION: Using the permuted order
c under simple greedy yields the specified
c coloring number
c Color = 3 specified partitions = 3
c p edge 175 417
c cnf created by edge2cnf
p cnf 525 1951
-1 -2 0
-1 -3 0
-2 -3 0
1 2 3 0
-4 -5 0
-4 -6 0
-5 -6 0
4 5 6 0
-7 -8 0
-7 -9 0
-8 -9 0
7 8 9 0
-10 -11 0
-10 -12 0
-11 -12 0
10 11 12 0
-13 -14 0
-13 -15 0
-14 -15 0
13 14 15 0
-16 -17 0
-16 -18 0
-17 -18 0
16 17 18 0
-19 -20 0
-19 -21 0
-20 -21 0
19 20 21 0
-22 -23 0
-22 -24 0
-23 -24 0
22 23 24 0
-25 -26 0
-25 -27 0
-26 -27 0
25 26 27 0
-28 -29 0
-28 -30 0
-29 -30 0
28 29 30 0
-31 -32 0
-31 -33 0
-32 -33 0
31 32 33 0
-34 -35 0
-34 -36 0
-35 -36 0
34 35 36 0
-37 -38 0
-37 -39 0
-38 -39 0
37 38 39 0
-40 -41 0
-40 -42 0
-41 -42 0
40 41 42 0
-43 -44 0
-43 -45 0
-44 -45 0
43 44 45 0
-46 -47 0
-46 -48 0
-47 -48 0
46 47 48 0
-49 -50 0
-49 -51 0
-50 -51 0
49 50 51 0
-52 -53 0
-52 -54 0
-53 -54 0
52 53 54 0
-55 -56 0
-55 -57 0
-56 -57 0
55 56 57 0
-58 -59 0
-58 -60 0
-59 -60 0
58 59 60 0
-61 -62 0
-61 -63 0
-62 -63 0
61 62 63 0
-64 -65 0
-64 -66 0
-65 -66 0
64 65 66 0
-67 -68 0
-67 -69 0
-68 -69 0
67 68 69 0
-70 -71 0
-70 -72 0
-71 -72 0
70 71 72 0
-73 -74 0
-73 -75 0
-74 -75 0
73 74 75 0
-76 -77 0
-76 -78 0
-77 -78 0
76 77 78 0
-79 -80 0
-79 -81 0
-80 -81 0
79 80 81 0
-82 -83 0
-82 -84 0
-83 -84 0
82 83 84 0
-85 -86 0
-85 -87 0
-86 -87 0
85 86 87 0
-88 -89 0
-88 -90 0
-89 -90 0
88 89 90 0
-91 -92 0
-91 -93 0
-92 -93 0
91 92 93 0
-94 -95 0
-94 -96 0
-95 -96 0
94 95 96 0
-97 -98 0
-97 -99 0
-98 -99 0
97 98 99 0
-100 -101 0
-100 -102 0
-101 -102 0
100 101 102 0
-103 -104 0
-103 -105 0
-104 -105 0
103 104 105 0
-106 -107 0
-106 -108 0
-107 -108 0
106 107 108 0
-109 -110 0
-109 -111 0
-110 -111 0
109 110 111 0
-112 -113 0
-112 -114 0
-113 -114 0
112 113 114 0
-115 -116 0
-115 -117 0
-116 -117 0
115 116 117 0
-118 -119 0
-118 -120 0
-119 -120 0
118 119 120 0
-121 -122 0
-121 -123 0
-122 -123 0
121 122 123 0
-124 -125 0
-124 -126 0
-125 -126 0
124 125 126 0
-127 -128 0
-127 -129 0
-128 -129 0
127 128 129 0
-130 -131 0
-130 -132 0
-131 -132 0
130 131 132 0
-133 -134 0
-133 -135 0
-134 -135 0
133 134 135 0
-136 -137 0
-136 -138 0
-137 -138 0
136 137 138 0
-139 -140 0
-139 -141 0
-140 -141 0
139 140 141 0
-142 -143 0
-142 -144 0
-143 -144 0
142 143 144 0
-145 -146 0
-145 -147 0
-146 -147 0
145 146 147 0
-148 -149 0
-148 -150 0
-149 -150 0
148 149 150 0
-151 -152 0
-151 -153 0
-152 -153 0
151 152 153 0
-154 -155 0
-154 -156 0
-155 -156 0
154 155 156 0
-157 -158 0
-157 -159 0
-158 -159 0
157 158 159 0
-160 -161 0
-160 -162 0
-161 -162 0
160 161 162 0
-163 -164 0
-163 -165 0
-164 -165 0
163 164 165 0
-166 -167 0
-166 -168 0
-167 -168 0
166 167 168 0
-169 -170 0
-169 -171 0
-170 -171 0
169 170 171 0
-172 -173 0
-172 -174 0
-173 -174 0
172 173 174 0
-175 -176 0
-175 -177 0
-176 -177 0
175 176 177 0
-178 -179 0
-178 -180 0
-179 -180 0
178 179 180 0
-181 -182 0
-181 -183 0
-182 -183 0
181 182 183 0
-184 -185 0
-184 -186 0
-185 -186 0
184 185 186 0
-187 -188 0
-187 -189 0
-188 -189 0
187 188 189 0
-190 -191 0
-190 -192 0
-191 -192 0
190 191 192 0
-193 -194 0
-193 -195 0
-194 -195 0
193 194 195 0
-196 -197 0
-196 -198 0
-197 -198 0
196 197 198 0
-199 -200 0
-199 -201 0
-200 -201 0
199 200 201 0
-202 -203 0
-202 -204 0
-203 -204 0
202 203 204 0
-205 -206 0
-205 -207 0
-206 -207 0
205 206 207 0
-208 -209 0
-208 -210 0
-209 -210 0
208 209 210 0
-211 -212 0
-211 -213 0
-212 -213 0
211 212 213 0
-214 -215 0
-214 -216 0
-215 -216 0
214 215 216 0
-217 -218 0
-217 -219 0
-218 -219 0
217 218 219 0
-220 -221 0
-220 -222 0
-221 -222 0
220 221 222 0
-223 -224 0
-223 -225 0
-224 -225 0
223 224 225 0
-226 -227 0
-226 -228 0
-227 -228 0
226 227 228 0
-229 -230 0
-229 -231 0
-230 -231 0
229 230 231 0
-232 -233 0
-232 -234 0
-233 -234 0
232 233 234 0
-235 -236 0
-235 -237 0
-236 -237 0
235 236 237 0
-238 -239 0
-238 -240 0
-239 -240 0
238 239 240 0
-241 -242 0
-241 -243 0
-242 -243 0
241 242 243 0
-244 -245 0
-244 -246 0
-245 -246 0
244 245 246 0
-247 -248 0
-247 -249 0
-248 -249 0
247 248 249 0
-250 -251 0
-250 -252 0
-251 -252 0
250 251 252 0
-253 -254 0
-253 -255 0
-254 -255 0
253 254 255 0
-256 -257 0
-256 -258 0
-257 -258 0
256 257 258 0
-259 -260 0
-259 -261 0
-260 -261 0
259 260 261 0
-262 -263 0
-262 -264 0
-263 -264 0
262 263 264 0
-265 -266 0
-265 -267 0
-266 -267 0
265 266 267 0
-268 -269 0
-268 -270 0
-269 -270 0
268 269 270 0
-271 -272 0
-271 -273 0
-272 -273 0
271 272 273 0
-274 -275 0
-274 -276 0
-275 -276 0
274 275 276 0
-277 -278 0
-277 -279 0
-278 -279 0
277 278 279 0
-280 -281 0
-280 -282 0
-281 -282 0
280 281 282 0
-283 -284 0
-283 -285 0
-284 -285 0
283 284 285 0
-286 -287 0
-286 -288 0
-287 -288 0
286 287 288 0
-289 -290 0
-289 -291 0
-290 -291 0
289 290 291 0
-292 -293 0
-292 -294 0
-293 -294 0
292 293 294 0
-295 -296 0
-295 -297 0
-296 -297 0
295 296 297 0
-298 -299 0
-298 -300 0
-299 -300 0
298 299 300 0
-301 -302 0
-301 -303 0
-302 -303 0
301 302 303 0
-304 -305 0
-304 -306 0
-305 -306 0
304 305 306 0
-307 -308 0
-307 -309 0
-308 -309 0
307 308 309 0
-310 -311 0
-310 -312 0
-311 -312 0
310 311 312 0
-313 -314 0
-313 -315 0
-314 -315 0
313 314 315 0
-316 -317 0
-316 -318 0
-317 -318 0
316 317 318 0
-319 -320 0
-319 -321 0
-320 -321 0
319 320 321 0
-322 -323 0
-322 -324 0
-323 -324 0
322 323 324 0
-325 -326 0
-325 -327 0
-326 -327 0
325 326 327 0
-328 -329 0
-328 -330 0
-329 -330 0
328 329 330 0
-331 -332 0
-331 -333 0
-332 -333 0
331 332 333 0
-334 -335 0
-334 -336 0
-335 -336 0
334 335 336 0
-337 -338 0
-337 -339 0
-338 -339 0
337 338 339 0
-340 -341 0
-340 -342 0
-341 -342 0
340 341 342 0
-343 -344 0
-343 -345 0
-344 -345 0
343 344 345 0
-346 -347 0
-346 -348 0
-347 -348 0
346 347 348 0
-349 -350 0
-349 -351 0
-350 -351 0
349 350 351 0
-352 -353 0
-352 -354 0
-353 -354 0
352 353 354 0
-355 -356 0
-355 -357 0
-356 -357 0
355 356 357 0
-358 -359 0
-358 -360 0
-359 -360 0
358 359 360 0
-361 -362 0
-361 -363 0
-362 -363 0
361 362 363 0
-364 -365 0
-364 -366 0
-365 -366 0
364 365 366 0
-367 -368 0
-367 -369 0
-368 -369 0
367 368 369 0
-370 -371 0
-370 -372 0
-371 -372 0
370 371 372 0
-373 -374 0
-373 -375 0
-374 -375 0
373 374 375 0
-376 -377 0
-376 -378 0
-377 -378 0
376 377 378 0
-379 -380 0
-379 -381 0
-380 -381 0
379 380 381 0
-382 -383 0
-382 -384 0
-383 -384 0
382 383 384 0
-385 -386 0
-385 -387 0
-386 -387 0
385 386 387 0
-388 -389 0
-388 -390 0
-389 -390 0
388 389 390 0
-391 -392 0
-391 -393 0
-392 -393 0
391 392 393 0
-394 -395 0
-394 -396 0
-395 -396 0
394 395 396 0
-397 -398 0
-397 -399 0
-398 -399 0
397 398 399 0
-400 -401 0
-400 -402 0
-401 -402 0
400 401 402 0
-403 -404 0
-403 -405 0
-404 -405 0
403 404 405 0
-406 -407 0
-406 -408 0
-407 -408 0
406 407 408 0
-409 -410 0
-409 -411 0
-410 -411 0
409 410 411 0
-412 -413 0
-412 -414 0
-413 -414 0
412 413 414 0
-415 -416 0
-415 -417 0
-416 -417 0
415 416 417 0
-418 -419 0
-418 -420 0
-419 -420 0
418 419 420 0
-421 -422 0
-421 -423 0
-422 -423 0
421 422 423 0
-424 -425 0
-424 -426 0
-425 -426 0
424 425 426 0
-427 -428 0
-427 -429 0
-428 -429 0
427 428 429 0
-430 -431 0
-430 -432 0
-431 -432 0
430 431 432 0
-433 -434 0
-433 -435 0
-434 -435 0
433 434 435 0
-436 -437 0
-436 -438 0
-437 -438 0
436 437 438 0
-439 -440 0
-439 -441 0
-440 -441 0
439 440 441 0
-442 -443 0
-442 -444 0
-443 -444 0
442 443 444 0
-445 -446 0
-445 -447 0
-446 -447 0
445 446 447 0
-448 -449 0
-448 -450 0
-449 -450 0
448 449 450 0
-451 -452 0
-451 -453 0
-452 -453 0
451 452 453 0
-454 -455 0
-454 -456 0
-455 -456 0
454 455 456 0
-457 -458 0
-457 -459 0
-458 -459 0
457 458 459 0
-460 -461 0
-460 -462 0
-461 -462 0
460 461 462 0
-463 -464 0
-463 -465 0
-464 -465 0
463 464 465 0
-466 -467 0
-466 -468 0
-467 -468 0
466 467 468 0
-469 -470 0
-469 -471 0
-470 -471 0
469 470 471 0
-472 -473 0
-472 -474 0
-473 -474 0
472 473 474 0
-475 -476 0
-475 -477 0
-476 -477 0
475 476 477 0
-478 -479 0
-478 -480 0
-479 -480 0
478 479 480 0
-481 -482 0
-481 -483 0
-482 -483 0
481 482 483 0
-484 -485 0
-484 -486 0
-485 -486 0
484 485 486 0
-487 -488 0
-487 -489 0
-488 -489 0
487 488 489 0
-490 -491 0
-490 -492 0
-491 -492 0
490 491 492 0
-493 -494 0
-493 -495 0
-494 -495 0
493 494 495 0
-496 -497 0
-496 -498 0
-497 -498 0
496 497 498 0
-499 -500 0
-499 -501 0
-500 -501 0
499 500 501 0
-502 -503 0
-502 -504 0
-503 -504 0
502 503 504 0
-505 -506 0
-505 -507 0
-506 -507 0
505 506 507 0
-508 -509 0
-508 -510 0
-509 -510 0
508 509 510 0
-511 -512 0
-511 -513 0
-512 -513 0
511 512 513 0
-514 -515 0
-514 -516 0
-515 -516 0
514 515 516 0
-517 -518 0
-517 -519 0
-518 -519 0
517 518 519 0
-520 -521 0
-520 -522 0
-521 -522 0
520 521 522 0
-523 -524 0
-523 -525 0
-524 -525 0
523 524 525 0
-43 -1 0
-44 -2 0
-45 -3 0
-94 -1 0
-95 -2 0
-96 -3 0
-226 -1 0
-227 -2 0
-228 -3 0
-388 -1 0
-389 -2 0
-390 -3 0
-472 -1 0
-473 -2 0
-474 -3 0
-511 -1 0
-512 -2 0
-513 -3 0
-121 -4 0
-122 -5 0
-123 -6 0
-148 -4 0
-149 -5 0
-150 -6 0
-151 -4 0
-152 -5 0
-153 -6 0
-229 -4 0
-230 -5 0
-231 -6 0
-250 -4 0
-251 -5 0
-252 -6 0
-322 -4 0
-323 -5 0
-324 -6 0
-505 -4 0
-506 -5 0
-507 -6 0
-91 -7 0
-92 -8 0
-93 -9 0
-118 -7 0
-119 -8 0
-120 -9 0
-196 -7 0
-197 -8 0
-198 -9 0
-214 -7 0
-215 -8 0
-216 -9 0
-100 -10 0
-101 -11 0
-102 -12 0
-220 -10 0
-221 -11 0
-222 -12 0
-304 -10 0
-305 -11 0
-306 -12 0
-475 -10 0
-476 -11 0
-477 -12 0
-523 -10 0
-524 -11 0
-525 -12 0
-22 -13 0
-23 -14 0
-24 -15 0
-346 -13 0
-347 -14 0
-348 -15 0
-409 -13 0
-410 -14 0
-411 -15 0
-448 -13 0
-449 -14 0
-450 -15 0
-25 -16 0
-26 -17 0
-27 -18 0
-97 -16 0
-98 -17 0
-99 -18 0
-217 -16 0
-218 -17 0
-219 -18 0
-229 -16 0
-230 -17 0
-231 -18 0
-340 -16 0
-341 -17 0
-342 -18 0
-514 -16 0
-515 -17 0
-516 -18 0
-118 -19 0
-119 -20 0
-120 -21 0
-154 -19 0
-155 -20 0
-156 -21 0
-412 -19 0
-413 -20 0
-414 -21 0
-223 -22 0
-224 -23 0
-225 -24 0
-295 -22 0
-296 -23 0
-297 -24 0
-382 -22 0
-383 -23 0
-384 -24 0
-64 -25 0
-65 -26 0
-66 -27 0
-100 -25 0
-101 -26 0
-102 -27 0
-133 -25 0
-134 -26 0
-135 -27 0
-196 -25 0
-197 -26 0
-198 -27 0
-373 -25 0
-374 -26 0
-375 -27 0
-409 -25 0
-410 -26 0
-411 -27 0
-73 -28 0
-74 -29 0
-75 -30 0
-157 -28 0
-158 -29 0
-159 -30 0
-184 -28 0
-185 -29 0
-186 -30 0
-280 -28 0
-281 -29 0
-282 -30 0
-316 -28 0
-317 -29 0
-318 -30 0
-331 -28 0
-332 -29 0
-333 -30 0
-376 -28 0
-377 -29 0
-378 -30 0
-514 -28 0
-515 -29 0
-516 -30 0
-58 -31 0
-59 -32 0
-60 -33 0
-277 -31 0
-278 -32 0
-279 -33 0
-394 -31 0
-395 -32 0
-396 -33 0
-439 -31 0
-440 -32 0
-441 -33 0
-49 -34 0
-50 -35 0
-51 -36 0
-100 -34 0
-101 -35 0
-102 -36 0
-430 -34 0
-431 -35 0
-432 -36 0
-88 -37 0
-89 -38 0
-90 -39 0
-190 -37 0
-191 -38 0
-192 -39 0
-508 -37 0
-509 -38 0
-510 -39 0
-103 -40 0
-104 -41 0
-105 -42 0
-250 -40 0
-251 -41 0
-252 -42 0
-283 -40 0
-284 -41 0
-285 -42 0
-478 -40 0
-479 -41 0
-480 -42 0
-58 -43 0
-59 -44 0
-60 -45 0
-85 -43 0
-86 -44 0
-87 -45 0
-331 -43 0
-332 -44 0
-333 -45 0
-49 -46 0
-50 -47 0
-51 -48 0
-64 -46 0
-65 -47 0
-66 -48 0
-199 -46 0
-200 -47 0
-201 -48 0
-220 -46 0
-221 -47 0
-222 -48 0
-304 -46 0
-305 -47 0
-306 -48 0
-334 -46 0
-335 -47 0
-336 -48 0
-352 -46 0
-353 -47 0
-354 -48 0
-520 -46 0
-521 -47 0
-522 -48 0
-181 -49 0
-182 -50 0
-183 -51 0
-292 -49 0
-293 -50 0
-294 -51 0
-322 -49 0
-323 -50 0
-324 -51 0
-307 -52 0
-308 -53 0
-309 -54 0
-352 -52 0
-353 -53 0
-354 -54 0
-364 -52 0
-365 -53 0
-366 -54 0
-454 -52 0
-455 -53 0
-456 -54 0
-94 -55 0
-95 -56 0
-96 -57 0
-142 -55 0
-143 -56 0
-144 -57 0
-247 -55 0
-248 -56 0
-249 -57 0
-253 -55 0
-254 -56 0
-255 -57 0
-454 -55 0
-455 -56 0
-456 -57 0
-484 -55 0
-485 -56 0
-486 -57 0
-523 -55 0
-524 -56 0
-525 -57 0
-199 -58 0
-200 -59 0
-201 -60 0
-325 -58 0
-326 -59 0
-327 -60 0
-448 -58 0
-449 -59 0
-450 -60 0
-481 -58 0
-482 -59 0
-483 -60 0
-496 -58 0
-497 -59 0
-498 -60 0
-163 -61 0
-164 -62 0
-165 -63 0
-391 -61 0
-392 -62 0
-393 -63 0
-520 -61 0
-521 -62 0
-522 -63 0
-523 -61 0
-524 -62 0
-525 -63 0
-169 -64 0
-170 -65 0
-171 -66 0
-364 -64 0
-365 -65 0
-366 -66 0
-91 -67 0
-92 -68 0
-93 -69 0
-217 -67 0
-218 -68 0
-219 -69 0
-439 -67 0
-440 -68 0
-441 -69 0
-292 -70 0
-293 -71 0
-294 -72 0
-355 -70 0
-356 -71 0
-357 -72 0
-367 -70 0
-368 -71 0
-369 -72 0
-457 -70 0
-458 -71 0
-459 -72 0
-400 -73 0
-401 -74 0
-402 -75 0
-412 -73 0
-413 -74 0
-414 -75 0
-133 -76 0
-134 -77 0
-135 -78 0
-229 -76 0
-230 -77 0
-231 -78 0
-307 -76 0
-308 -77 0
-309 -78 0
-346 -76 0
-347 -77 0
-348 -78 0
-121 -79 0
-122 -80 0
-123 -81 0
-148 -79 0
-149 -80 0
-150 -81 0
-199 -79 0
-200 -80 0
-201 -81 0
-223 -79 0
-224 -80 0
-225 -81 0
-424 -79 0
-425 -80 0
-426 -81 0
-481 -79 0
-482 -80 0
-483 -81 0
-217 -82 0
-218 -83 0
-219 -84 0
-271 -82 0
-272 -83 0
-273 -84 0
-373 -82 0
-374 -83 0
-375 -84 0
-385 -82 0
-386 -83 0
-387 -84 0
-130 -85 0
-131 -86 0
-132 -87 0
-226 -85 0
-227 -86 0
-228 -87 0
-265 -85 0
-266 -86 0
-267 -87 0
-169 -88 0
-170 -89 0
-171 -90 0
-187 -88 0
-188 -89 0
-189 -90 0
-334 -88 0
-335 -89 0
-336 -90 0
-358 -88 0
-359 -89 0
-360 -90 0
-382 -88 0
-383 -89 0
-384 -90 0
-430 -88 0
-431 -89 0
-432 -90 0
-505 -88 0
-506 -89 0
-507 -90 0
-160 -91 0
-161 -92 0
-162 -93 0
-274 -91 0
-275 -92 0
-276 -93 0
-301 -91 0
-302 -92 0
-303 -93 0
-430 -91 0
-431 -92 0
-432 -93 0
-466 -91 0
-467 -92 0
-468 -93 0
-250 -94 0
-251 -95 0
-252 -96 0
-382 -94 0
-383 -95 0
-384 -96 0
-421 -94 0
-422 -95 0
-423 -96 0
-520 -94 0
-521 -95 0
-522 -96 0
-112 -97 0
-113 -98 0
-114 -99 0
-202 -97 0
-203 -98 0
-204 -99 0
-253 -97 0
-254 -98 0
-255 -99 0
-316 -97 0
-317 -98 0
-318 -99 0
-496 -97 0
-497 -98 0
-498 -99 0
-166 -100 0
-167 -101 0
-168 -102 0
-334 -100 0
-335 -101 0
-336 -102 0
-379 -103 0
-380 -104 0
-381 -105 0
-451 -103 0
-452 -104 0
-453 -105 0
-493 -103 0
-494 -104 0
-495 -105 0
-133 -106 0
-134 -107 0
-135 -108 0
-355 -106 0
-356 -107 0
-357 -108 0
-391 -106 0
-392 -107 0
-393 -108 0
-418 -106 0
-419 -107 0
-420 -108 0
-331 -109 0
-332 -110 0
-333 -111 0
-349 -109 0
-350 -110 0
-351 -111 0
-355 -109 0
-356 -110 0
-357 -111 0
-382 -109 0
-383 -110 0
-384 -111 0
-427 -109 0
-428 -110 0
-429 -111 0
-343 -112 0
-344 -113 0
-345 -114 0
-424 -112 0
-425 -113 0
-426 -114 0
-472 -112 0
-473 -113 0
-474 -114 0
-190 -115 0
-191 -116 0
-192 -117 0
-217 -115 0
-218 -116 0
-219 -117 0
-403 -115 0
-404 -116 0
-405 -117 0
-196 -118 0
-197 -119 0
-198 -120 0
-322 -118 0
-323 -119 0
-324 -120 0
-328 -118 0
-329 -119 0
-330 -120 0
-289 -121 0
-290 -122 0
-291 -123 0
-391 -121 0
-392 -122 0
-393 -123 0
-493 -121 0
-494 -122 0
-495 -123 0
-283 -124 0
-284 -125 0
-285 -126 0
-286 -124 0
-287 -125 0
-288 -126 0
-349 -124 0
-350 -125 0
-351 -126 0
-217 -127 0
-218 -128 0
-219 -129 0
-262 -127 0
-263 -128 0
-264 -129 0
-343 -127 0
-344 -128 0
-345 -129 0
-469 -127 0
-470 -128 0
-471 -129 0
-493 -127 0
-494 -128 0
-495 -129 0
-142 -130 0
-143 -131 0
-144 -132 0
-382 -130 0
-383 -131 0
-384 -132 0
-466 -130 0
-467 -131 0
-468 -132 0
-148 -133 0
-149 -134 0
-150 -135 0
-253 -133 0
-254 -134 0
-255 -135 0
-289 -136 0
-290 -137 0
-291 -138 0
-331 -136 0
-332 -137 0
-333 -138 0
-181 -139 0
-182 -140 0
-183 -141 0
-220 -139 0
-221 -140 0
-222 -141 0
-328 -139 0
-329 -140 0
-330 -141 0
-352 -139 0
-353 -140 0
-354 -141 0
-379 -139 0
-380 -140 0
-381 -141 0
-169 -142 0
-170 -143 0
-171 -144 0
-238 -142 0
-239 -143 0
-240 -144 0
-265 -142 0
-266 -143 0
-267 -144 0
-430 -142 0
-431 -143 0
-432 -144 0
-472 -142 0
-473 -143 0
-474 -144 0
-478 -142 0
-479 -143 0
-480 -144 0
-316 -145 0
-317 -146 0
-318 -147 0
-322 -145 0
-323 -146 0
-324 -147 0
-361 -148 0
-362 -149 0
-363 -150 0
-214 -151 0
-215 -152 0
-216 -153 0
-244 -151 0
-245 -152 0
-246 -153 0
-385 -151 0
-386 -152 0
-387 -153 0
-439 -151 0
-440 -152 0
-441 -153 0
-505 -151 0
-506 -152 0
-507 -153 0
-196 -154 0
-197 -155 0
-198 -156 0
-364 -154 0
-365 -155 0
-366 -156 0
-397 -154 0
-398 -155 0
-399 -156 0
-163 -157 0
-164 -158 0
-165 -159 0
-304 -157 0
-305 -158 0
-306 -159 0
-379 -157 0
-380 -158 0
-381 -159 0
-193 -160 0
-194 -161 0
-195 -162 0
-169 -163 0
-170 -164 0
-171 -165 0
-226 -163 0
-227 -164 0
-228 -165 0
-271 -163 0
-272 -164 0
-273 -165 0
-190 -166 0
-191 -167 0
-192 -168 0
-205 -166 0
-206 -167 0
-207 -168 0
-286 -169 0
-287 -170 0
-288 -171 0
-385 -169 0
-386 -170 0
-387 -171 0
-175 -172 0
-176 -173 0
-177 -174 0
-286 -172 0
-287 -173 0
-288 -174 0
-379 -172 0
-380 -173 0
-381 -174 0
-232 -175 0
-233 -176 0
-234 -177 0
-334 -175 0
-335 -176 0
-336 -177 0
-454 -175 0
-455 -176 0
-456 -177 0
-307 -178 0
-308 -179 0
-309 -180 0
-376 -178 0
-377 -179 0
-378 -180 0
-391 -178 0
-392 -179 0
-393 -180 0
-427 -178 0
-428 -179 0
-429 -180 0
-433 -178 0
-434 -179 0
-435 -180 0
-343 -181 0
-344 -182 0
-345 -183 0
-238 -184 0
-239 -185 0
-240 -186 0
-304 -184 0
-305 -185 0
-306 -186 0
-346 -184 0
-347 -185 0
-348 -186 0
-448 -184 0
-449 -185 0
-450 -186 0
-214 -187 0
-215 -188 0
-216 -189 0
-427 -187 0
-428 -188 0
-429 -189 0
-268 -190 0
-269 -191 0
-270 -192 0
-274 -190 0
-275 -191 0
-276 -192 0
-337 -190 0
-338 -191 0
-339 -192 0
-496 -190 0
-497 -191 0
-498 -192 0
-202 -193 0
-203 -194 0
-204 -195 0
-265 -193 0
-266 -194 0
-267 -195 0
-415 -193 0
-416 -194 0
-417 -195 0
-460 -193 0
-461 -194 0
-462 -195 0
-523 -193 0
-524 -194 0
-525 -195 0
-253 -196 0
-254 -197 0
-255 -198 0
-241 -199 0
-242 -200 0
-243 -201 0
-265 -199 0
-266 -200 0
-267 -201 0
-346 -199 0
-347 -200 0
-348 -201 0
-430 -199 0
-431 -200 0
-432 -201 0
-490 -202 0
-491 -203 0
-492 -204 0
-292 -205 0
-293 -206 0
-294 -207 0
-262 -208 0
-263 -209 0
-264 -210 0
-265 -208 0
-266 -209 0
-267 -210 0
-286 -208 0
-287 -209 0
-288 -210 0
-313 -208 0
-314 -209 0
-315 -210 0
-367 -208 0
-368 -209 0
-369 -210 0
-370 -208 0
-371 -209 0
-372 -210 0
-313 -211 0
-314 -212 0
-315 -213 0
-499 -211 0
-500 -212 0
-501 -213 0
-376 -214 0
-377 -215 0
-378 -216 0
-487 -214 0
-488 -215 0
-489 -216 0
-358 -217 0
-359 -218 0
-360 -219 0
-469 -217 0
-470 -218 0
-471 -219 0
-496 -217 0
-497 -218 0
-498 -219 0
-241 -220 0
-242 -221 0
-243 -222 0
-238 -223 0
-239 -224 0
-240 -225 0
-298 -226 0
-299 -227 0
-300 -228 0
-328 -226 0
-329 -227 0
-330 -228 0
-406 -226 0
-407 -227 0
-408 -228 0
-433 -226 0
-434 -227 0
-435 -228 0
-520 -229 0
-521 -230 0
-522 -231 0
-361 -232 0
-362 -233 0
-363 -234 0
-400 -232 0
-401 -233 0
-402 -234 0
-481 -232 0
-482 -233 0
-483 -234 0
-271 -238 0
-272 -239 0
-273 -240 0
-343 -238 0
-344 -239 0
-345 -240 0
-370 -238 0
-371 -239 0
-372 -240 0
-277 -241 0
-278 -242 0
-279 -243 0
-337 -241 0
-338 -242 0
-339 -243 0
-439 -241 0
-440 -242 0
-441 -243 0
-517 -241 0
-518 -242 0
-519 -243 0
-265 -244 0
-266 -245 0
-267 -246 0
-295 -244 0
-296 -245 0
-297 -246 0
-394 -244 0
-395 -245 0
-396 -246 0
-457 -244 0
-458 -245 0
-459 -246 0
-463 -244 0
-464 -245 0
-465 -246 0
-481 -244 0
-482 -245 0
-483 -246 0
-490 -244 0
-491 -245 0
-492 -246 0
-268 -247 0
-269 -248 0
-270 -249 0
-286 -247 0
-287 -248 0
-288 -249 0
-373 -247 0
-374 -248 0
-375 -249 0
-400 -247 0
-401 -248 0
-402 -249 0
-484 -247 0
-485 -248 0
-486 -249 0
-505 -247 0
-506 -248 0
-507 -249 0
-361 -250 0
-362 -251 0
-363 -252 0
-364 -250 0
-365 -251 0
-366 -252 0
-484 -253 0
-485 -254 0
-486 -255 0
-262 -256 0
-263 -257 0
-264 -258 0
-346 -256 0
-347 -257 0
-348 -258 0
-364 -256 0
-365 -257 0
-366 -258 0
-403 -256 0
-404 -257 0
-405 -258 0
-460 -256 0
-461 -257 0
-462 -258 0
-403 -259 0
-404 -260 0
-405 -261 0
-271 -262 0
-272 -263 0
-273 -264 0
-283 -262 0
-284 -263 0
-285 -264 0
-394 -262 0
-395 -263 0
-396 -264 0
-457 -262 0
-458 -263 0
-459 -264 0
-319 -265 0
-320 -266 0
-321 -267 0
-370 -268 0
-371 -269 0
-372 -270 0
-415 -268 0
-416 -269 0
-417 -270 0
-487 -268 0
-488 -269 0
-489 -270 0
-283 -274 0
-284 -275 0
-285 -276 0
-499 -274 0
-500 -275 0
-501 -276 0
-481 -277 0
-482 -278 0
-483 -279 0
-316 -280 0
-317 -281 0
-318 -282 0
-376 -280 0
-377 -281 0
-378 -282 0
-415 -280 0
-416 -281 0
-417 -282 0
-370 -283 0
-371 -284 0
-372 -285 0
-373 -283 0
-374 -284 0
-375 -285 0
-523 -286 0
-524 -287 0
-525 -288 0
-322 -289 0
-323 -290 0
-324 -291 0
-325 -289 0
-326 -290 0
-327 -291 0
-328 -289 0
-329 -290 0
-330 -291 0
-502 -289 0
-503 -290 0
-504 -291 0
-307 -292 0
-308 -293 0
-309 -294 0
-337 -292 0
-338 -293 0
-339 -294 0
-457 -292 0
-458 -293 0
-459 -294 0
-490 -292 0
-491 -293 0
-492 -294 0
-454 -295 0
-455 -296 0
-456 -297 0
-367 -298 0
-368 -299 0
-369 -300 0
-433 -298 0
-434 -299 0
-435 -300 0
-472 -298 0
-473 -299 0
-474 -300 0
-511 -298 0
-512 -299 0
-513 -300 0
-481 -301 0
-482 -302 0
-483 -303 0
-343 -304 0
-344 -305 0
-345 -306 0
-493 -304 0
-494 -305 0
-495 -306 0
-343 -310 0
-344 -311 0
-345 -312 0
-427 -310 0
-428 -311 0
-429 -312 0
-520 -310 0
-521 -311 0
-522 -312 0
-373 -313 0
-374 -314 0
-375 -315 0
-463 -313 0
-464 -314 0
-465 -315 0
-514 -313 0
-515 -314 0
-516 -315 0
-421 -316 0
-422 -317 0
-423 -318 0
-496 -316 0
-497 -317 0
-498 -318 0
-334 -319 0
-335 -320 0
-336 -321 0
-409 -319 0
-410 -320 0
-411 -321 0
-373 -322 0
-374 -323 0
-375 -324 0
-337 -325 0
-338 -326 0
-339 -327 0
-376 -325 0
-377 -326 0
-378 -327 0
-379 -328 0
-380 -329 0
-381 -330 0
-418 -328 0
-419 -329 0
-420 -330 0
-397 -334 0
-398 -335 0
-399 -336 0
-430 -334 0
-431 -335 0
-432 -336 0
-397 -337 0
-398 -338 0
-399 -339 0
-433 -337 0
-434 -338 0
-435 -339 0
-421 -340 0
-422 -341 0
-423 -342 0
-430 -340 0
-431 -341 0
-432 -342 0
-361 -343 0
-362 -344 0
-363 -345 0
-382 -343 0
-383 -344 0
-384 -345 0
-361 -346 0
-362 -347 0
-363 -348 0
-361 -349 0
-362 -350 0
-363 -351 0
-370 -349 0
-371 -350 0
-372 -351 0
-379 -349 0
-380 -350 0
-381 -351 0
-433 -349 0
-434 -350 0
-435 -351 0
-505 -349 0
-506 -350 0
-507 -351 0
-472 -352 0
-473 -353 0
-474 -354 0
-394 -355 0
-395 -356 0
-396 -357 0
-439 -358 0
-440 -359 0
-441 -360 0
-484 -358 0
-485 -359 0
-486 -360 0
-391 -364 0
-392 -365 0
-393 -366 0
-421 -367 0
-422 -368 0
-423 -369 0
-508 -370 0
-509 -371 0
-510 -372 0
-469 -373 0
-470 -374 0
-471 -375 0
-466 -376 0
-467 -377 0
-468 -378 0
-517 -376 0
-518 -377 0
-519 -378 0
-475 -382 0
-476 -383 0
-477 -384 0
-430 -385 0
-431 -386 0
-432 -387 0
-487 -385 0
-488 -386 0
-489 -387 0
-523 -388 0
-524 -389 0
-525 -390 0
-478 -391 0
-479 -392 0
-480 -393 0
-517 -394 0
-518 -395 0
-519 -396 0
-475 -397 0
-476 -398 0
-477 -399 0
-415 -400 0
-416 -401 0
-417 -402 0
-421 -400 0
-422 -401 0
-423 -402 0
-514 -400 0
-515 -401 0
-516 -402 0
-412 -403 0
-413 -404 0
-414 -405 0
-511 -403 0
-512 -404 0
-513 -405 0
-514 -403 0
-515 -404 0
-516 -405 0
-409 -406 0
-410 -407 0
-411 -408 0
-424 -406 0
-425 -407 0
-426 -408 0
-478 -409 0
-479 -410 0
-480 -411 0
-436 -412 0
-437 -413 0
-438 -414 0
-499 -412 0
-500 -413 0
-501 -414 0
-505 -412 0
-506 -413 0
-507 -414 0
-457 -418 0
-458 -419 0
-459 -420 0
-514 -427 0
-515 -428 0
-516 -429 0
-451 -433 0
-452 -434 0
-453 -435 0
-487 -433 0
-488 -434 0
-489 -435 0
-463 -436 0
-464 -437 0
-465 -438 0
-481 -436 0
-482 -437 0
-483 -438 0
-499 -448 0
-500 -449 0
-501 -450 0
-475 -454 0
-476 -455 0
-477 -456 0
-493 -463 0
-494 -464 0
-495 -465 0
-496 -463 0
-497 -464 0
-498 -465 0
-517 -466 0
-518 -467 0
-519 -468 0
-478 -469 0
-479 -470 0
-480 -471 0
-481 -469 0
-482 -470 0
-483 -471 0
-496 -475 0
-497 -476 0
-498 -477 0
-505 -487 0
-506 -488 0
-507 -489 0
-502 -496 0
-503 -497 0
-504 -498 0
-514 -511 0
-515 -512 0
-516 -513 0
